language ESSENCE' 1.0
letting values be [[8, 1, 0, 3, 2, 5, 6, 9, 7], [5, 3, 0, 0, 0, 7, 2, 0, 0], [2, 0, 0, 6, 0, 8, 0, 3, 5], [4, 0, 2, 1, 0, 3, 8, 6, 0], [1, 0, 0, 8, 0, 0, 0, 0, 4], [0, 8, 0, 0, 0, 4, 3, 0, 2], [0, 2, 5, 0, 3, 0, 0, 8, 0], [6, 0, 0, 2, 0, 9, 7, 0, 3], [0, 9, 0, 7, 5, 6, 4, 0, 0]]